RT is False
Default write of storage_offers_DA.csv just to have a file (but constraint should be inactive)
Reading model...
...model read.
creating competitive generators file...
...competitive generators recorded.
Loading data...
.. day-ahead data with real-time VRE data read.
Compiling instance...
...instance created.
Creating Offer Mitigation (model will solve as dispatch if TRUE)...
Solving...

Welcome to IBM(R) ILOG(R) CPLEX(R) Interactive Optimizer 12.9.0.0
  with Simplex, Mixed Integer & Barrier Optimizers
5725-A06 5725-A29 5724-Y48 5724-Y49 5724-Y54 5724-Y55 5655-Y21
Copyright IBM Corp. 1988, 2019.  All Rights Reserved.

Type 'help' for a list of available commands.
Type 'help' followed by a command name for more
information on commands.

CPLEX> Logfile 'cplex.log' closed.
Logfile 'C:\Users\Luke\Desktop\test919\logs\tmpdvyeyx1m.cplex.log' open.
CPLEX> New value for parallel optimization mode: -1
CPLEX> New value for emphasis for MIP optimization: 1
CPLEX> New value for mixed integer optimality gap tolerance: 0.01
CPLEX> New value for integrality tolerance: 1e-12
CPLEX> New value for deterministic time limit in ticks: 75000
CPLEX> Problem 'C:\Users\Luke\Desktop\test919\logs\tmpq01dnbob.pyomo.lp' read.
Read time = 0.05 sec. (3.05 ticks)
CPLEX> Problem name         : C:\Users\Luke\Desktop\test919\logs\tmpq01dnbob.pyomo.lp
Objective sense      : Minimize
Variables            :   26085  [Nneg: 1,  Box: 21620,  Free: 4464]
Objective nonzeros   :    2496
Linear constraints   :   27563  [Less: 14006,  Greater: 4416,  Equal: 9141]
  Nonzeros           :   90683
  RHS nonzeros       :   12271

Variables            : Min LB: -5000.000        Max UB: 1000000.       
Objective nonzeros   : Min   : 15.73158         Max   : 124.0997       
Linear constraints   :
  Nonzeros           : Min   : 0.8500000        Max   : 3000.000       
  RHS nonzeros       : Min   : 0.2250000        Max   : 5000.000       
CPLEX> CPXPARAM_Parallel                                -1
CPXPARAM_Emphasis_MIP                            1
CPXPARAM_DetTimeLimit                            75000
CPXPARAM_MIP_Tolerances_MIPGap                   0.01
CPXPARAM_MIP_Tolerances_Integrality              9.9999999999999998e-13
Parallel mode: opportunistic, using up to 12 threads for concurrent optimization.
Tried aggregator 1 time.
LP Presolve eliminated 21384 rows and 15495 columns.
Aggregator did 757 substitutions.
Reduced LP has 5422 rows, 9833 columns, and 32572 nonzeros.
Presolve time = 0.06 sec. (30.60 ticks)
Symmetry aggregator did 5659 additional substitutions.
Initializing dual steep norms . . .

Iteration log . . .
Iteration:     1   Dual objective     =             0.000000
Perturbation started.
Iteration:   101   Dual objective     =             0.000000
Iteration:   343   Dual objective     =            46.355912
Iteration:   535   Dual objective     =            56.706534
Iteration:   750   Dual objective     =            56.899427
Iteration:   927   Dual objective     =        160101.372688
Iteration:  1092   Dual objective     =        175562.185518
Removing perturbation.

Dual crossover.
  Dual:  Fixed no variables.
  Primal:  Fixing 6 variables.
        5 PMoves:  Infeasibility  3.45653461e-09  Objective  1.77558773e+05
        0 PMoves:  Infeasibility  3.45653461e-09  Objective  1.77558773e+05
  Primal:  Pushed 6, exchanged 0.

Dual simplex solved model.


Dual simplex - Optimal:  Objective =  1.7755877304e+05
Solution time =    0.11 sec.  Iterations = 1311 (0)
Deterministic time = 75.92 ticks  (696.49 ticks/sec)

CPLEX> Solution written to file 'C:\Users\Luke\Desktop\test919\logs\tmpbghuo854.cplex.sol'.
CPLEX> Exporting results... 
...storage offer mitigation file created
Converting model to MPEC...
...converted
NOTE: initial MIP solve with only storage competitive to get feasible solution
Solving...

Welcome to IBM(R) ILOG(R) CPLEX(R) Interactive Optimizer 12.9.0.0
  with Simplex, Mixed Integer & Barrier Optimizers
5725-A06 5725-A29 5724-Y48 5724-Y49 5724-Y54 5724-Y55 5655-Y21
Copyright IBM Corp. 1988, 2019.  All Rights Reserved.

Type 'help' for a list of available commands.
Type 'help' followed by a command name for more
information on commands.

CPLEX> Logfile 'cplex.log' closed.
Logfile 'C:\Users\Luke\Desktop\test919\logs\tmplvi7_n_y.cplex.log' open.
CPLEX> New value for parallel optimization mode: -1
CPLEX> New value for emphasis for MIP optimization: 1
CPLEX> New value for mixed integer optimality gap tolerance: 0.01
CPLEX> New value for integrality tolerance: 1e-12
CPLEX> New value for deterministic time limit in ticks: 75000
CPLEX> Problem 'C:\Users\Luke\Desktop\test919\logs\tmpuym03n2o.pyomo.lp' read.
Read time = 0.20 sec. (13.88 ticks)
CPLEX> Problem name         : C:\Users\Luke\Desktop\test919\logs\tmpuym03n2o.pyomo.lp
Objective sense      : Maximize
Variables            :   53809  [Nneg: 1,  Box: 22004,  Free: 4464,
                                 Binary: 27340]
Objective nonzeros   :    9029
Linear constraints   :  123253  [Less: 41346,  Greater: 59096,  Equal: 22811]
  Nonzeros           :  293217
  RHS nonzeros       :   67491

Variables            : Min LB: -5000.000        Max UB: 1000000.       
Objective nonzeros   : Min   : 0.2250000        Max   : 2500.000       
Linear constraints   :
  Nonzeros           : Min   : 0.2250000        Max   : 1000000.       
  RHS nonzeros       : Min   : 0.2250000        Max   : 1000000.       
CPLEX> CPXPARAM_Parallel                                -1
CPXPARAM_Emphasis_MIP                            1
CPXPARAM_DetTimeLimit                            75000
CPXPARAM_MIP_Tolerances_MIPGap                   0.01
CPXPARAM_MIP_Tolerances_Integrality              9.9999999999999998e-13
Tried aggregator 4 times.
MIP Presolve eliminated 88668 rows and 18971 columns.
MIP Presolve added 3380 rows and 0 columns.
MIP Presolve modified 24833 coefficients.
Aggregator did 13003 substitutions.
Reduced MIP has 24962 rows, 21279 columns, and 71808 nonzeros.
Reduced MIP has 8416 binaries, 0 generals, 0 SOSs, and 0 indicators.
Presolve time = 0.27 sec. (192.68 ticks)
Probing fixed 409 vars, tightened 3864 bounds.
Probing time = 0.06 sec. (19.29 ticks)
Tried aggregator 2 times.
MIP Presolve eliminated 926 rows and 826 columns.
MIP Presolve modified 3032 coefficients.
Aggregator did 26 substitutions.
Reduced MIP has 24010 rows, 20427 columns, and 69037 nonzeros.
Reduced MIP has 8004 binaries, 0 generals, 0 SOSs, and 0 indicators.
Presolve time = 0.11 sec. (89.51 ticks)
Probing fixed 5 vars, tightened 225 bounds.
Probing time = 0.11 sec. (23.73 ticks)
Clique table members: 44713.
MIP emphasis: integer feasibility.
MIP search method: dynamic search.
Parallel mode: opportunistic, using up to 12 threads.
Root relaxation solution time = 0.45 sec. (633.45 ticks)

        Nodes                                         Cuts/
   Node  Left     Objective  IInf  Best Integer    Best Bound    ItCnt     Gap

      0     0     3964.3813   107                   3964.3813     5393         
*     0+    0                         3964.3813     3964.3813             0.00%
      0     0        cutoff           3964.3813     3964.3813     5393    0.00%
Elapsed time = 1.59 sec. (1337.23 ticks, tree = 0.01 MB, solutions = 1)

Root node processing (before b&c):
  Real time             =    1.61 sec. (1339.17 ticks)
Parallel b&c, 12 threads:
  Real time             =    0.00 sec. (0.00 ticks)
  Sync time (average)   =    0.00 sec.
  Wait time (average)   =    0.00 sec.
                          ------------
Total (root+branch&cut) =    1.61 sec. (1339.17 ticks)

Solution pool: 1 solution saved.

MIP - Integer optimal solution:  Objective =  3.9643813170e+03
Solution time =    1.61 sec.  Iterations = 5393  Nodes = 0
Deterministic time = 1339.33 ticks  (832.40 ticks/sec)

CPLEX> Incumbent solution written to file 'C:\Users\Luke\Desktop\test919\logs\tmp78hy56mk.cplex.sol'.
CPLEX> NOTE: no warmstart specified for MIP iteration, default behavior is true
NOTE: resolving with all competitive generators using storage-only solution to warmstart
Solving...

Welcome to IBM(R) ILOG(R) CPLEX(R) Interactive Optimizer 12.9.0.0
  with Simplex, Mixed Integer & Barrier Optimizers
5725-A06 5725-A29 5724-Y48 5724-Y49 5724-Y54 5724-Y55 5655-Y21
Copyright IBM Corp. 1988, 2019.  All Rights Reserved.

Type 'help' for a list of available commands.
Type 'help' followed by a command name for more
information on commands.

CPLEX> Logfile 'cplex.log' closed.
Logfile 'C:\Users\Luke\Desktop\test919\logs\tmptd7e0849.cplex.log' open.
CPLEX> New value for parallel optimization mode: -1
CPLEX> New value for emphasis for MIP optimization: 1
CPLEX> New value for mixed integer optimality gap tolerance: 0.01
CPLEX> New value for integrality tolerance: 1e-12
CPLEX> New value for deterministic time limit in ticks: 75000
CPLEX> Problem 'C:\Users\Luke\Desktop\test919\logs\tmp3grbvyat.pyomo.lp' read.
Read time = 0.20 sec. (13.91 ticks)
CPLEX> MIP start file 'C:\Users\Luke\Desktop\test919\logs\tmpap8rp6cu.cplex.mst' read.
CPLEX> Problem name         : C:\Users\Luke\Desktop\test919\logs\tmp3grbvyat.pyomo.lp
Objective sense      : Maximize
Variables            :   54529  [Nneg: 1,  Box: 22724,  Free: 4464,
                                 Binary: 27340]
Objective nonzeros   :    9725
Linear constraints   :  123253  [Less: 41346,  Greater: 59096,  Equal: 22811]
  Nonzeros           :  293217
  RHS nonzeros       :   67491

Variables            : Min LB: -5000.000        Max UB: 1000000.       
Objective nonzeros   : Min   : 0.2250000        Max   : 2500.000       
Linear constraints   :
  Nonzeros           : Min   : 0.2250000        Max   : 1000000.       
  RHS nonzeros       : Min   : 0.2250000        Max   : 1000000.       
CPLEX> CPXPARAM_Parallel                                -1
CPXPARAM_Emphasis_MIP                            1
CPXPARAM_DetTimeLimit                            75000
CPXPARAM_MIP_Tolerances_MIPGap                   0.01
CPXPARAM_MIP_Tolerances_Integrality              9.9999999999999998e-13
Warning:  No solution found from 1 MIP starts.
Retaining values of one MIP start for possible repair.
Tried aggregator 4 times.
MIP Presolve eliminated 88668 rows and 19691 columns.
MIP Presolve added 3380 rows and 0 columns.
MIP Presolve modified 24833 coefficients.
Aggregator did 13003 substitutions.
Reduced MIP has 24962 rows, 21279 columns, and 71808 nonzeros.
Reduced MIP has 8416 binaries, 0 generals, 0 SOSs, and 0 indicators.
Presolve time = 0.27 sec. (193.09 ticks)
Probing fixed 409 vars, tightened 3864 bounds.
Probing time = 0.05 sec. (19.29 ticks)
Tried aggregator 2 times.
MIP Presolve eliminated 926 rows and 826 columns.
MIP Presolve modified 3032 coefficients.
Aggregator did 26 substitutions.
Reduced MIP has 24010 rows, 20427 columns, and 69037 nonzeros.
Reduced MIP has 8004 binaries, 0 generals, 0 SOSs, and 0 indicators.
Presolve time = 0.11 sec. (89.52 ticks)
Probing fixed 5 vars, tightened 225 bounds.
Probing time = 0.11 sec. (23.73 ticks)
Clique table members: 44713.
MIP emphasis: integer feasibility.
MIP search method: dynamic search.
Parallel mode: opportunistic, using up to 12 threads.
Root relaxation solution time = 0.48 sec. (669.53 ticks)

        Nodes                                         Cuts/
   Node  Left     Objective  IInf  Best Integer    Best Bound    ItCnt     Gap

      0     0    77775.2984   207                  77775.2984     5780         
      0     0    75982.4703   112                    Cuts: 97     5893         
      0     0    75574.2850   105                    Cuts: 47     5924         
      0     0    75572.7496   109                    Cuts: 12     5933         
Repair heuristic found nothing.
      0    10    63021.8672    88                     Cuts: 8     5994         
Elapsed time = 3.70 sec. (1985.38 ticks, tree = 0.02 MB, solutions = 0)
    265   192    58627.7467    55                  72961.0937     7376         
    555   408    31766.3673    34                  72961.0937     9327         
    809   532    24712.6435    29                  72961.0937    11618         
    987   612    58342.4039    47                  72501.5785    15646         
   1280   689    18391.1036    27                  72501.5785    17692         
   1539  1033    29434.9111    41                  72501.5785    24602         
   1761  1089    infeasible                        72501.5785    25675         
   1991  1177    18218.8167    49                  72501.5785    27908         
   2240  1675   -73551.2069    38                  72501.5785    40934         
   3197  1920    40505.7301    31                  72501.5785    48009         
Elapsed time = 17.19 sec. (5090.35 ticks, tree = 13.90 MB, solutions = 0)
   4177  2504    infeasible                        72501.5785    64052         
   4298  3167    54134.8497    42                  64654.0480    97895         
   5006   391  -180370.3002    45                  62453.1543   107560         
   6077  1174    57388.7515    38                  62453.1543   128749         
   7102  1778    57593.2168    28                  62453.1543   160150         
   8239  2326    57673.1926    10                  62453.1543   186483         
   9505  3011   -23278.9428    21                  62453.1543   219990         
  10762  3450     6051.3282    28                  62453.1543   238316         
  11848  3984    infeasible                        62453.1543   262678         
  12883  4470    41661.0405    64                  62453.1543   287480         
Elapsed time = 58.61 sec. (16010.70 ticks, tree = 75.75 MB, solutions = 0)
  13964  5157    57461.0750     5                  62453.1543   324196         
  15027  5489    57389.6164     6                  62453.1543   343006         
  16095  6098    57358.1155    14                  62453.1543   375306         
  17243  6614    57418.6087    14                  62453.1543   403028         
  17965  6975    57436.2278    17                  62453.1543   422632         
  19144  7365  -195485.9400    40                  62453.1543   451682         
  20287  7863    56953.8552     7                  62453.1543   480248         
  21570  8393    47579.2536    55                  62453.1543   509126         
  22724  8779   -34053.6611    39                  62453.1543   541632         
  23769  9128   -61211.0846    64                  62453.1543   570603         
Elapsed time = 110.92 sec. (25551.94 ticks, tree = 112.87 MB, solutions = 0)
  24972  9547    57432.1245    17                  62453.1543   594924         
  26200 10043    infeasible                        62453.1543   626001         
  27265 10742    57317.6021    14                  62453.1543   669380         
  28534 11206    56979.7905     7                  62453.1543   695623         
  29813 11523    infeasible                        62453.1543   715545         
  31000 12176    57049.5237     7                  62453.1543   756992         
  32165 12483    infeasible                        62453.1543   779163         
  32955 12786    56641.3615     6                  62453.1543   800966         
  34361 13301    57107.4075     9                  62453.1543   829654         
  35643 13845    57107.4075     8                  62453.1543   862805         
Elapsed time = 168.84 sec. (35092.73 ticks, tree = 150.20 MB, solutions = 0)
  36785 14066    56979.4617     6                  62453.1543   876276         
  37888 14546    56973.0462     9                  62453.1543   908773         
  38953 15768    infeasible                        62453.1543   990036         
  40056 15814   -86634.3621    44                  62453.1543   993285         
  41163 16656    25400.6210    31                  62453.1543  1043569         
  42281 16250   -91093.4780    49                  62453.1543  1020016         
  43478 16745    56979.5738     6                  62453.1543  1050042         
  44670 17551    55137.8287    47                  62453.1543  1089040         
  45647 17423    49755.4325    19                  62453.1543  1080927         
  46688 17919    44953.2653    53                  62453.1543  1113800         
Elapsed time = 178.42 sec. (44642.02 ticks, tree = 184.42 MB, solutions = 0)
  47810 18606    infeasible                        62453.1543  1155695         
  48889 19790  -420850.0461   120                  62453.1543  1216096         
  50092 19504  -135381.7975    32                  62453.1543  1198539         
  51238 20754     1269.2576    70                  62453.1543  1274325         
  52412 20920    16439.2451    23                  62453.1543  1284397         
  53509 20960   -65912.4942    34                  62453.1543  1286420         
  54515 21009    infeasible                        62453.1543  1288951         
  55572 21229    56497.6111     7                  62453.1543  1302825         
  56381 22054  -332909.9608    50                  62453.1543  1364243         
  56945 22335    56519.4722     7                  62453.1543  1382539         
Elapsed time = 183.63 sec. (54190.67 ticks, tree = 219.86 MB, solutions = 0)
  57433 22765    50424.7512    36                  62453.1543  1402637         
  57693 24136    58899.2151    55                  62207.0696  1497221         
  58231   253    infeasible                        61550.7954  1506675         
  58945   560    infeasible                        61550.7954  1524727         
  59535   958    58345.8096    22                  60038.6372  1550243         
  60315  1477    infeasible                        60038.6372  1577842         
  61029  1755    31953.2355    43                  60038.6372  1594666         
  61819  2180    47257.6104    18                  60038.6372  1625534         
  62614  2411    34416.4079    39                  60038.6372  1646366         
  63368  3006    43403.7368    29                  60038.6372  1694838         
Elapsed time = 213.67 sec. (65689.87 ticks, tree = 31.70 MB, solutions = 0)
  64145  3077    47704.1011    22                  60038.6372  1702607         
  64986  3549    49243.0263    17                  60038.6372  1732443         
  65797  3778    33890.5655    22                  60038.6372  1746872         
  66585  4738    47667.4634    19                  60038.6372  1798626         
  67339  4834    50217.8500    12                  60038.6372  1805424         
  68116  4863    infeasible                        60038.6372  1804739         
  68874  5298    infeasible                        60038.6372  1840030         
  69558  5546    infeasible                        60038.6372  1849915         
  69855  6037  -112856.2009   105                  60038.6372  1895973         

Clique cuts applied:  1
Cover cuts applied:  45
Implied bound cuts applied:  1
Flow cuts applied:  51
Mixed integer rounding cuts applied:  1
Zero-half cuts applied:  3
Gomory fractional cuts applied:  2

Root node processing (before b&c):
  Real time             =    3.24 sec. (1947.93 ticks)
Parallel b&c, 12 threads:
  Real time             =  236.69 sec. (73067.65 ticks)
  Sync time (average)   =    0.68 sec.
  Wait time (average)   =    0.05 sec.
                          ------------
Total (root+branch&cut) =  239.92 sec. (75015.58 ticks)


MIP - Deterministic time limit exceeded, no integer solution.
Current MIP best bound =  6.0038637227e+04 (gap is infinite)
Solution time =  239.92 sec.  Iterations = 1973732  Nodes = 70025 (6774)
Deterministic time = 75015.73 ticks  (312.67 ticks/sec)

CPLEX> CPLEX Error  1217: No solution exists.
No file written.
CPLEX> gap is infinite, so writing 0
Exporting results... 
